#Set de comunas: 1: Santiago, 2: Providencia, 3: Las Condes, 4: Vitacura 5:Nunoa
#				 6: Comuna ficticia para nodos ficticios

set orig := 1, 2, 3, 4, 5, 6;
set dest := 1, 2, 3, 4, 5, 6;

#Set de viajes.
set links :=
	(1,1) (1,2) (1,3) (1,4) (1,5)	(1,6)
	(2,1) (2,2) (2,3) (2,4) (2,5)	(2,6) 
	(3,1) (3,2) (3,3) (3,4) (3,5)	(3,6)
	(4,1) (4,2) (4,3) (4,4) (4,5)	(4,6)
	(5,1) (5,2) (5,3) (5,4) (5,5)	(5,6)
	(6,1) (6,2) (6,3) (6,4) (6,5)	(6,6)
	;
	
#Costo de viaje entre comunas.	
param t_cost :
	4	3	2	1	5  6:=
4	9	15	16	27	24	0
3	15	11	17	29	21	0
2	16	17	12	21	11	0
1	27	29	21	16	23	0
5	24	21	11	23	12	0
6	0	0	0	0	0	0
;